CoCl2 Vaccum=15
1.0
        3.5269000530         0.0000000000         0.0000000000
       -1.7634500265         3.0543850425         0.0000000000
        0.0000000000         0.0000000000        17.6408996582
   Co   Cl
    1    2
Direct
     0.000000000         0.000000000         0.074850000
     0.666670032         0.333329992         0.000000000
     0.333329986         0.666669976         0.149700000
